s td 37 20 55
b 1 5 50
b 2 4 29 34 42
b 3 1 2 3 6 8 9 12 19 20 24 25 30 34 36 40 46 47 55
b 4 2 4 8 12 19 24 30 34 36 46 55
b 5 4 8 24 29 30 34 36
b 6 4 8 19 24 30 44 55
b 7 1 2 3 6 9 12 19 20 22 24 25 30 34 36 37 40 46 47 50 55
b 8 1 2 6 9 12 15 19 20 22 24 25 30 34 36 37 40 46 47 50 55
b 9 1 2 6 9 15 16 19 20 22 24 25 30 34 37 40 46 47 50 55
b 10 1 2 6 9 13 15 16 19 22 24 25 34 37 46 47 50 55
b 11 1 2 6 7 9 13 15 16 19 25 34 37 46 47 50 55
b 12 1 2 7 9 10 15 16 19 25 37 47 50 55
b 13 7 10 15 19 21 25 37 50
b 14 10 11 19 21 25
b 15 1 9 10 16 18 47 55
b 16 1 16 18 28 55
b 17 1 2 13 22 24 47 49 50
b 18 2 6 9 12 15 19 25 36 40 43 46 47 50 55
b 19 9 17 19 43
b 20 2 6 12 23 25 36 40 43 46 47 55
b 21 2 23 25 36 43 45 47
b 22 1 2 3 6 9 12 19 20 22 25 30 34 36 37 40 46 47 50 51 55
b 23 6 12 20 31 40 51
b 24 12 14 31 40
b 25 1 2 3 9 19 20 22 25 30 34 36 37 40 46 47 48 50 51 55
b 26 1 2 19 20 22 25 27 30 34 36 37 40 47 48 51 55
b 27 2 19 20 22 25 26 27 30 34 37 40 47 48 51 55
b 28 19 20 25 26 30 34 47 48 51 53
b 29 20 25 26 30 32 48 51 53
b 30 2 22 26 27 37 40 52 55
b 31 27 30 36 39 51
b 32 3 20 25 47 48 50 51 54
b 33 20 38 47 50 51 54
b 34 1 3 6 8 9 19 20 24 33 47 55
b 35 1 3 6 8 9 19 33 41 55
b 36 1 19 33 35 41 55
b 37 50 55
1 37
2 5
3 4
3 7
3 34
4 5
4 6
7 37
7 8
7 22
8 9
8 18
9 10
10 11
10 17
11 12
12 13
12 15
13 14
15 16
18 19
18 20
20 21
22 23
22 25
23 24
25 26
25 32
26 27
26 31
27 28
27 30
28 29
32 33
34 35
35 36
